17	4
28	37	35	24	
0	0	0	0	0	3	2	3	4	
2	5	8	10	6	3	6	12	17	
2	0	10	6	7	3	8	10	11	
7	10	10	5	0	2	5	16	
5	8	6	5	0	1	14	
225	3	0	8	6	3	7	9	13	
225	0	8	5	0	3	17	17	17	
75	3	10	6	7	2	13	17	
250	0	3	0	4	2	10	11	
250	6	5	0	0	3	17	17	17	
150	8	0	5	2	3	15	17	17	
75	5	8	2	4	3	17	17	17	
7	10	6	0	7	2	14	17	
5	0	5	6	7	2	17	17	
8	4	8	8	0	1	17	
1	3	2	0	4	1	17	
0	0	0	0	0	0	
